(set-info :smt-lib-version 2.6)
(set-logic QF_BV)
(set-info :source linux.model)
(set-info :category "industrial")
(set-info :status sat)
(declare-const |64BIT| Bool)
(declare-const ACPI Bool)
(declare-const ACPI_WMI Bool)
(declare-const BLK_DEV_INITRD Bool)
(declare-const BLOCK Bool)
(declare-const CFQ_GROUP_IOSCHED Bool)
(declare-const COMPAT Bool)
(declare-const CONTEXT_SWITCH_TRACER Bool)
(declare-const CPUMASK_OFFSTACK Bool)
(declare-const DEBUG_BLK_CGROUP Bool)
(declare-const DEBUG_PAGEALLOC Bool)
(declare-const DEBUG_RODATA Bool)
(declare-const DEBUG_SLAB Bool)
(declare-const DEBUG_SLAB_LEAK Bool)
(declare-const DEVPTS_MULTIPLE_INSTANCES Bool)
(declare-const DIRECT_GBPAGES Bool)
(declare-const DRM_I915 Bool)
(declare-const EISA Bool)
(declare-const FTRACE_MCOUNT_RECORD Bool)
(declare-const HAVE_SETUP_PER_CPU_AREA Bool)
(declare-const HIGHMEM Bool)
(declare-const HOTPLUG_CPU Bool)
(declare-const HOTPLUG_PCI_SGI Bool)
(declare-const HT_IRQ Bool)
(declare-const HUGETLB_PAGE Bool)
(declare-const HWMON Bool)
(declare-const I2C Bool)
(declare-const IPV6 Bool)
(declare-const IPV6_MODULE Bool)
(declare-const IP_SCTP Bool)
(declare-const JFFS2_FS_POSIX_ACL Bool)
(declare-const JFFS2_FS_WBUF_VERIFY Bool)
(declare-const JFFS2_SUMMARY Bool)
(declare-const KALLSYMS Bool)
(declare-const KGDB Bool)
(declare-const KPROBES Bool)
(declare-const LBDAF Bool)
(declare-const LEGACY_PTYS Bool)
(declare-const LOCKDEP Bool)
(declare-const MEMORY_HOTPLUG Bool)
(declare-const MMU Bool)
(declare-const MODULES Bool)
(declare-const MODULE_FORCE_LOAD Bool)
(declare-const MODULE_FORCE_UNLOAD Bool)
(declare-const MODULE_UNLOAD Bool)
(declare-const MODVERSIONS Bool)
(declare-const NETPOLL Bool)
(declare-const NET_POLL_CONTROLLER Bool)
(declare-const NF_NAT_IRC Bool)
(declare-const NO_HZ Bool)
(declare-const NUMA Bool)
(declare-const PAGE_POISONING Bool)
(declare-const PCI Bool)
(declare-const PCI_BIOS Bool)
(declare-const PCI_DIRECT Bool)
(declare-const PCI_MMCONFIG Bool)
(declare-const PM Bool)
(declare-const PNP Bool)
(declare-const PREEMPT Bool)
(declare-const PREEMPT_VOLUNTARY Bool)
(declare-const PRINTK Bool)
(declare-const PRINT_QUOTA_WARNING Bool)
(declare-const PROC_FS Bool)
(declare-const PROC_PAGE_MONITOR Bool)
(declare-const PROVE_LOCKING Bool)
(declare-const QUOTA Bool)
(declare-const RCU_CPU_STALL_DETECTOR Bool)
(declare-const RCU_FANOUT_EXACT Bool)
(declare-const RCU_TORTURE_TEST_RUNNABLE Bool)
(declare-const RCU_TRACE Bool)
(declare-const REISERFS_CHECK Bool)
(declare-const RING_BUFFER Bool)
(declare-const RT_GROUP_SCHED Bool)
(declare-const SCHED_DEBUG Bool)
(declare-const SCTP_DBG_MSG Bool)
(declare-const SECURITY Bool)
(declare-const SHMEM Bool)
(declare-const SLABINFO Bool)
(declare-const SMP Bool)
(declare-const SYSCTL Bool)
(declare-const SYSFS Bool)
(declare-const SYSFS_DEPRECATED Bool)
(declare-const SYSFS_DEPRECATED_V2 Bool)
(declare-const TCP_MD5SIG Bool)
(declare-const TMPFS Bool)
(declare-const TRACEPOINTS Bool)
(declare-const TRACE_IRQFLAGS Bool)
(declare-const TRACING Bool)
(declare-const TREE_PREEMPT_RCU Bool)
(declare-const TWL4030_CORE Bool)
(declare-const UNIX98_PTYS Bool)
(declare-const VLAN_8021Q Bool)
(declare-const VLAN_8021Q_MODULE Bool)
(declare-const VORTEX Bool)
(declare-const X86 Bool)
(declare-const X86_32 Bool)
(declare-const X86_64 Bool)
(declare-const X86_BIGSMP Bool)
(declare-const X86_IO_APIC Bool)
(declare-const X86_LOCAL_APIC Bool)
(declare-const X86_REROUTE_FOR_BROKEN_BOOT_IRQS Bool)
(declare-const X86_VISWS Bool)
(declare-const XFRM Bool)
(declare-const ZONE_DMA Bool)
(assert (or (= MODULES true) (not (= KPROBES true))))
(assert (or (= KALLSYMS true) (not (= KPROBES true))))
(assert (or (not (= MODULE_FORCE_LOAD true)) (= MODULES true)))
(assert (or (= NETPOLL true) (not (= NET_POLL_CONTROLLER true))))
(assert (or (= PCI true) (not (= PCI_BIOS true))))
(assert (or (= X86_32 true) (not (= PCI_BIOS true))))
(assert (or (= I2C true) (not (= TWL4030_CORE true))))
(assert (or (= X86 true) (not (= MEMORY_HOTPLUG true))))
(assert (or (= BLOCK true) (not (= REISERFS_CHECK true))))
(assert (= HAVE_SETUP_PER_CPU_AREA true))
(assert (or (not (= X86_REROUTE_FOR_BROKEN_BOOT_IRQS true)) (= X86_IO_APIC true)))
(assert (or (= MODULES true) (not (= HOTPLUG_PCI_SGI true))))
(assert (or (not (= MODULES true)) (not (= HOTPLUG_PCI_SGI true))))
(assert (not (= HOTPLUG_PCI_SGI true)))
(assert (or (not (= MODULE_UNLOAD true)) (= MODULES true)))
(assert (or (not (= X86 true)) (not (= ACPI true)) (not (= PCI true)) (not (= PM true)) (= PNP true)))
(assert (or (not (= |64BIT| true)) (= X86_64 true)))
(assert (or (= |64BIT| true) (not (= X86_64 true))))
(assert (or (not (= SMP true)) (= X86_LOCAL_APIC true)))
(assert (or (not (= X86_64 true)) (= X86_LOCAL_APIC true)))
(assert (or (= |64BIT| true) (= X86_32 true)))
(assert (or (not (= |64BIT| true)) (not (= X86_32 true))))
(assert (or (not (= MODVERSIONS true)) (= MODULES true)))
(assert (or (not (= DEVPTS_MULTIPLE_INSTANCES true)) (= UNIX98_PTYS true)))
(assert (or (not (= SECURITY true)) (= SYSFS true)))
(assert (or (not (= |64BIT| true)) (not (= LBDAF true))))
(assert (or (= BLOCK true) (not (= LBDAF true))))
(assert (or (not (= DIRECT_GBPAGES true)) (= X86_64 true)))
(assert (or (= PROC_FS true) (not (= SLABINFO true))))
(assert (or (= SYSFS true) (not (= SYSFS_DEPRECATED true))))
(assert (or (= SYSFS_DEPRECATED_V2 true) (not (= SYSFS_DEPRECATED true))))
(assert (or (not (= SYSFS_DEPRECATED_V2 true)) (not (= SYSFS true)) (= SYSFS_DEPRECATED true)))
(assert (= ZONE_DMA true))
(assert (or (not (= DEBUG_SLAB_LEAK true)) (= DEBUG_SLAB true)))
(assert (or (not (= VLAN_8021Q_MODULE true)) (= MODULES true)))
(assert (or (not (= VLAN_8021Q true)) (not (= VLAN_8021Q_MODULE true))))
(assert (or (= SYSFS true) (not (= TRACEPOINTS true)) (= TRACING true)))
(assert (or (= BLOCK true) (not (= TRACEPOINTS true)) (= TRACING true)))
(assert (or (not (= TRACING true)) (= TRACEPOINTS true)))
(assert (or (not (= PRINT_QUOTA_WARNING true)) (= QUOTA true)))
(assert (or (= X86_32 true) (not (= HIGHMEM true))))
(assert (or (= PROC_FS true) (not (= PROC_PAGE_MONITOR true))))
(assert (or (= PROC_FS true) (= MMU true) (not (= PROC_PAGE_MONITOR true))))
(assert (or (= SMP true) (not (= HOTPLUG_CPU true))))
(assert (or (= X86 true) (not (= ACPI true))))
(assert (or (= PCI true) (not (= ACPI true))))
(assert (or (= PM true) (not (= ACPI true))))
(assert (or (= X86_IO_APIC true) (not (= HT_IRQ true))))
(assert (or (= X86_LOCAL_APIC true) (not (= HT_IRQ true))))
(assert (or (= PCI true) (not (= HT_IRQ true))))
(assert (or (= PREEMPT true) (not (= TREE_PREEMPT_RCU true))))
(assert (or (= SMP true) (not (= X86_BIGSMP true))))
(assert (or (= X86_32 true) (not (= X86_BIGSMP true))))
(assert (or (not (= SMP true)) (= X86_IO_APIC true)))
(assert (or (not (= X86_64 true)) (= X86_IO_APIC true)))
(assert (= X86 true))
(assert (or (not (= X86_64 true)) (not (= PCI true)) (= PCI_DIRECT true)))
(assert (or (= PCI true) (not (= PCI_DIRECT true))))
(assert (or (not (= SYSFS_DEPRECATED_V2 true)) (= SYSFS true)))
(assert (or (not (= TMPFS true)) (= SHMEM true)))
(assert (or (= MODULE_UNLOAD true) (not (= MODULE_FORCE_UNLOAD true))))
(assert (or (= MODULES true) (not (= MODULE_FORCE_UNLOAD true))))
(assert (or (= CFQ_GROUP_IOSCHED true) (not (= DEBUG_BLK_CGROUP true))))
(assert (or (= BLOCK true) (not (= DEBUG_BLK_CGROUP true))))
(assert (or (= CFQ_GROUP_IOSCHED true) (= BLOCK true) (not (= DEBUG_BLK_CGROUP true))))
(assert (= MMU true))
(assert (or (not (= IPV6_MODULE true)) (= MODULES true)))
(assert (or (not (= IPV6 true)) (not (= IPV6_MODULE true))))
(assert (or (= PCI true) (= EISA true) (= MODULES true) (not (= VORTEX true))))
(assert (or (= PCI true) (= EISA true) (not (= MODULES true)) (not (= VORTEX true))))
(assert (or (= PCI true) (= EISA true) (not (= VORTEX true))))
(assert (or (= X86_32 true) (not (= EISA true))))
(assert (or (= PCI true) (= X86_64 true) (not (= PCI_MMCONFIG true))))
(assert (or (= X86_32 true) (= ACPI true) (not (= PCI_MMCONFIG true))))
(assert (or (= X86_32 true) (= PCI true) (not (= PCI_MMCONFIG true))))
(assert (or (= PCI true) (not (= PCI_MMCONFIG true))))
(assert (or (= X86_32 true) (= X86_64 true) (not (= PCI_MMCONFIG true))))
(assert (or (= PCI true) (= ACPI true) (not (= PCI_MMCONFIG true))))
(assert (or (not (= TRACING true)) (= RING_BUFFER true)))
(assert (or (= BLOCK true) (not (= CFQ_GROUP_IOSCHED true))))
(assert (or (= PCI true) (not (= X86_VISWS true))))
(assert (or (= X86_32 true) (not (= X86_VISWS true))))
(assert (or (not (= PREEMPT true)) (not (= PREEMPT_VOLUNTARY true))))
(check-sat)
(exit)
